
param T = 200.0;
ampl: include task2.run;
CPLEX 12.7.1.0: optimal integer solution; objective 0.14
77903 MIP simplex iterations
19 branch-and-bound nodes

param T = 100.0;
CPLEX 12.7.1.0: integer infeasible.
11923 MIP simplex iterations
0 branch-and-bound nodes
No basis.




#pickupNodes:15 interNodes:15 placeNodes:15
param startNode = 0;
param endNode = 46;
param nrAGVs = 2;
param nTasks = 15;
param travelTask = 0;
param edgeCap = 1;
param epsilon = 1;
param taskLowerBound = 1;

param : ARCS :TAU :=
0 1 0
0 2 0
0 3 0
0 4 0
0 5 0
0 6 0
0 7 0
0 8 0
0 9 0
0 10 0
0 11 0
0 12 0
0 13 0
0 14 0
0 15 0
1 2 2
2 1 2
2 3 2
3 2 2
3 4 2
4 3 2
4 5 2
5 4 2
5 6 2
6 5 2
6 7 2
7 6 2
7 8 2
8 7 2
8 9 2
9 8 2
9 10 2
10 9 2
10 11 2
11 10 2
11 12 2
12 11 2
12 13 2
13 12 2
13 14 2
14 13 2
14 15 2
15 14 2
1 16 2
16 1 2
2 17 2
17 2 2
3 18 2
18 3 2
4 19 2
19 4 2
5 20 2
20 5 2
6 21 2
21 6 2
7 22 2
22 7 2
8 23 2
23 8 2
9 24 2
24 9 2
10 25 2
25 10 2
11 26 2
26 11 2
12 27 2
27 12 2
13 28 2
28 13 2
14 29 2
29 14 2
15 30 2
30 15 2
16 17 2
17 16 2
17 18 2
18 17 2
18 19 2
19 18 2
19 20 2
20 19 2
20 21 2
21 20 2
21 22 2
22 21 2
22 23 2
23 22 2
23 24 2
24 23 2
24 25 2
25 24 2
25 26 2
26 25 2
26 27 2
27 26 2
27 28 2
28 27 2
28 29 2
29 28 2
29 30 2
30 29 2
16 31 2
31 16 2
17 32 2
32 17 2
18 33 2
33 18 2
19 34 2
34 19 2
20 35 2
35 20 2
21 36 2
36 21 2
22 37 2
37 22 2
23 38 2
38 23 2
24 39 2
39 24 2
25 40 2
40 25 2
26 41 2
41 26 2
27 42 2
42 27 2
28 43 2
43 28 2
29 44 2
44 29 2
30 45 2
45 30 2
31 32 2
32 31 2
32 33 2
33 32 2
33 34 2
34 33 2
34 35 2
35 34 2
35 36 2
36 35 2
36 37 2
37 36 2
37 38 2
38 37 2
38 39 2
39 38 2
39 40 2
40 39 2
40 41 2
41 40 2
41 42 2
42 41 2
42 43 2
43 42 2
43 44 2
44 43 2
44 45 2
45 44 2
31 46 0
32 46 0
33 46 0
34 46 0
35 46 0
36 46 0
37 46 0
38 46 0
39 46 0
40 46 0
41 46 0
42 46 0
43 46 0
44 46 0
45 46 0;

param :src_tasks :=
1 13
2 9
3 13
4 3
5 9
6 7
7 7
8 8
9 10
10 14
11 15
12 1
13 7
14 2
15 1;

param :snk_tasks :=
1 39
2 44
3 35
4 39
5 33
6 44
7 40
8 35
9 44
10 41
11 45
12 41
13 41
14 44
15 32;
